 vasp.5.3.3 18Dez12 (build May 12 2015 13:38:56) complex

 executed on             LinuxIFC date 2016.02.16  00:17:54

 INCAR:
 POTCAR:    PAW_PBE Eu_3 20Oct2008
 POTCAR:    PAW_PBE Mn_pv 02Aug2007
 POTCAR:    PAW_PBE O 08Apr2002

 POTCAR:    PAW_PBE Eu_3 20Oct2008
   VRHFIN =Eu : [core=Kr4d]

   TITEL  = PAW_PBE Eu_3 20Oct2008
   POMASS =  151.965; ZVAL   =    9.000    mass and valenz
   ENMAX  =  129.057; ENMIN  =   96.793 eV

 POTCAR:    PAW_PBE Mn_pv 02Aug2007
   VRHFIN =Mn: 3p4s3d

   TITEL  = PAW_PBE Mn_pv 02Aug2007
   POMASS =   54.938; ZVAL   =   13.000    mass and valenz
   ENMAX  =  269.864; ENMIN  =  202.398 eV

 POTCAR:    PAW_PBE O 08Apr2002
   VRHFIN =O: s2p4

   TITEL  = PAW_PBE O 08Apr2002
   POMASS =   16.000; ZVAL   =    6.000    mass and valenz
   ENMAX  =  400.000; ENMIN  =  300.000 eV

 WARNING: PSMAXN for non-local potential too small
          PSMAXN should be >   11.4556933989635       NTYP=           1

  PAW_PBE Eu_3 20Oct2008                :
  PAW_PBE Mn_pv 02Aug2007               :
  PAW_PBE O 08Apr2002                   :

 POSCAR: EuMnO3
  positions in direct lattice
  velocities in cartesian coordinates
 exchange correlation table for  LEXCH =       14
   RHO(1)=    0.500       N(1)  =     2000
   RHO(2)=  100.500       N(2)  =     4000

 ion  position               nearest neighbor table
   1  0.980  0.039  0.250-  24 2.27  39 2.32  36 2.32  17 2.34  30 2.49  25 2.49  27 2.54  32 2.54
                            10 3.01  12 3.01  24 3.05   9 3.12  11 3.12  11 3.29   9 3.29   8 3.71
   2  0.021  0.958  0.750-  19 2.27  27 2.30  32 2.30  18 2.34  29 2.45  26 2.45  36 2.54  39 2.54
                            14 3.03  16 3.03  19 3.08   9 3.14  11 3.14   9 3.30  11 3.30   7 3.71
   3  0.480  0.211  0.750-  22 2.27  34 2.32  37 2.32  19 2.34  27 2.49  32 2.49  25 2.54  30 2.54
                             9 3.01  11 3.01  22 3.05  12 3.12  10 3.12  12 3.29  10 3.29   6 3.71
   4  0.521  0.292  0.250-  17 2.27  30 2.30  25 2.30  20 2.34  31 2.45  28 2.45  34 2.54  37 2.54
                            13 3.03  15 3.03  17 3.08  10 3.14  12 3.14  10 3.30  12 3.30   5 3.71
   5  0.980  0.539  0.250-  20 2.27  31 2.32  28 2.32  21 2.34  38 2.49  33 2.49  35 2.54  40 2.54
                            14 3.01  16 3.01  20 3.05  13 3.12  15 3.12  15 3.29  13 3.29   4 3.71
   6  0.021  0.458  0.750-  23 2.27  35 2.30  40 2.30  22 2.34  37 2.45  34 2.45  28 2.54  31 2.54
                            10 3.03  12 3.03  23 3.08  13 3.14  15 3.14  13 3.30  15 3.30   3 3.71
   7  0.480  0.711  0.750-  18 2.27  26 2.32  29 2.32  23 2.34  35 2.49  40 2.49  33 2.54  38 2.54
                            13 3.01  15 3.01  18 3.05  16 3.12  14 3.12  16 3.29  14 3.29   2 3.71
   8  0.521  0.792  0.250-  21 2.27  38 2.30  33 2.30  24 2.34  39 2.45  36 2.45  26 2.54  29 2.54
                             9 3.03  11 3.03  21 3.08  14 3.14  16 3.14  14 3.30  16 3.30   1 3.71
   9  0.502  0.002  0.000-  27 1.90  36 1.90  24 1.91  19 1.91  25 2.11  26 2.15   3 3.01   8 3.03
                             1 3.12   2 3.14   1 3.29   2 3.30
  10  0.002  0.248  1.000-  25 1.90  34 1.90  22 1.91  17 1.91  27 2.11  28 2.15   1 3.01   6 3.03
                             3 3.12   4 3.14   3 3.29   4 3.30
  11  0.502  0.002  0.500-  32 1.90  39 1.90  24 1.91  19 1.91  30 2.11  29 2.15   3 3.01   8 3.03
                             1 3.12   2 3.14   1 3.29   2 3.30
  12  0.002  0.248  0.500-  30 1.90  37 1.90  22 1.91  17 1.91  32 2.11  31 2.15   1 3.01   6 3.03
                             3 3.12   4 3.14   3 3.29   4 3.30
  13  0.502  0.502  0.000-  35 1.90  28 1.90  20 1.91  23 1.91  33 2.11  34 2.15   7 3.01   4 3.03
                             5 3.12   6 3.14   5 3.29   6 3.30
  14  0.002  0.748  1.000-  33 1.90  26 1.90  18 1.91  21 1.91  35 2.11  36 2.15   5 3.01   2 3.03
                             7 3.12   8 3.14   7 3.29   8 3.30
  15  0.502  0.502  0.500-  40 1.90  31 1.90  20 1.91  23 1.91  38 2.11  37 2.15   7 3.01   4 3.03
                             5 3.12   6 3.14   5 3.29   6 3.30
  16  0.002  0.748  0.500-  38 1.90  29 1.90  18 1.91  21 1.91  40 2.11  39 2.15   5 3.01   2 3.03
                             7 3.12   8 3.14   7 3.29   8 3.30
  17  0.101  0.236  0.250-  10 1.91  12 1.91   4 2.27   1 2.34   4 3.08
  18  0.903  0.761  0.750-  14 1.91  16 1.91   7 2.27   2 2.34   7 3.05
  19  0.601  0.014  0.750-   9 1.91  11 1.91   2 2.27   3 2.34   2 3.08
  20  0.403  0.489  0.250-  13 1.91  15 1.91   5 2.27   4 2.34   5 3.05
  21  0.101  0.736  0.250-  14 1.91  16 1.91   8 2.27   5 2.34   8 3.08
  22  0.903  0.261  0.750-  10 1.91  12 1.91   3 2.27   6 2.34   3 3.05
  23  0.601  0.514  0.750-  13 1.91  15 1.91   6 2.27   7 2.34   6 3.08
  24  0.403  0.989  0.250-   9 1.91  11 1.91   1 2.27   8 2.34   1 3.05
  25  0.700  0.160  0.050-  10 1.90   9 2.11   4 2.30   1 2.49   3 2.54
  26  0.296  0.842  0.953-  14 1.90   9 2.15   7 2.32   2 2.45   8 2.54
  27  0.200  0.090  0.950-   9 1.90  10 2.11   2 2.30   3 2.49   1 2.54
  28  0.796  0.408  0.047-  13 1.90  10 2.15   5 2.32   4 2.45   6 2.54
  29  0.296  0.842  0.547-  16 1.90  11 2.15   7 2.32   2 2.45   8 2.54
  30  0.700  0.160  0.450-  12 1.90  11 2.11   4 2.30   1 2.49   3 2.54
  31  0.796  0.408  0.453-  15 1.90  12 2.15   5 2.32   4 2.45   6 2.54
  32  0.200  0.090  0.550-  11 1.90  12 2.11   2 2.30   3 2.49   1 2.54
  33  0.700  0.660  0.050-  14 1.90  13 2.11   8 2.30   5 2.49   7 2.54
  34  0.296  0.342  0.953-  10 1.90  13 2.15   3 2.32   6 2.45   4 2.54
  35  0.200  0.590  0.950-  13 1.90  14 2.11   6 2.30   7 2.49   5 2.54
  36  0.796  0.908  0.047-   9 1.90  14 2.15   1 2.32   8 2.45   2 2.54
  37  0.296  0.342  0.547-  12 1.90  15 2.15   3 2.32   6 2.45   4 2.54
  38  0.700  0.660  0.450-  16 1.90  15 2.11   8 2.30   5 2.49   7 2.54
  39  0.796  0.908  0.453-  11 1.90  16 2.15   1 2.32   8 2.45   2 2.54
  40  0.200  0.590  0.550-  15 1.90  16 2.11   6 2.30   7 2.49   5 2.54

  LATTYP: Found a simple orthorhombic cell.
 ALAT       =     5.1905401644
 B/A-ratio  =     1.4109150310
 C/A-ratio  =     2.2069659542

  Lattice vectors:

 A1 = (  -5.1905401644,   0.0000000000,   0.0000000000)
 A2 = (   0.0000000000,   0.0000000000,  -7.3234111372)
 A3 = (   0.0000000000, -11.4553454266,   0.0000000000)

Analysis of symmetry for initial positions (statically):
 Subroutine PRICEL returns following result:

[...]

   2 primitive cells build up your supercell.

 Routine SETGRP: Setting up the symmetry group for a
 simple orthorhombic supercell.

 Subroutine GETGRP returns: Found  4 space group operations
 (whereof  1 operations were pure point group operations)
 out of a pool of  8 trial point group operations.

The static configuration has the point symmetry C_1 .
 The point group associated with its full space group is C_2v.

Analysis of symmetry for dynamics (positions and initial velocities):
 Subroutine PRICEL returns following result:

  LATTYP: Found a simple orthorhombic cell.
 ALAT       =     5.1905401644
 B/A-ratio  =     1.1034830433
 C/A-ratio  =     1.4109150310

  Lattice vectors:

 A1 = (   5.1905401644,   0.0000000000,   0.0000000000)
 A2 = (   0.0000000000,   5.7276730569,   0.0000000000)
 A3 = (   0.0000000000,   0.0000000000,   7.3234111372)

   2 primitive cells build up your supercell.

 Routine SETGRP: Setting up the symmetry group for a
 simple orthorhombic supercell.

 Subroutine GETGRP returns: Found  4 space group operations
 (whereof  1 operations were pure point group operations)
 out of a pool of  8 trial point group operations.

The dynamic configuration has the point symmetry C_1 .
 The point group associated with its full space group is C_2v.

Analysis of magnetic symmetry:

 Subroutine MAGSYM returns: Found  4 space group operations
 (whereof  1 operations were pure point group operations)
 out of a pool of  4 trial space group operations
 (whereof  1 operations were pure point group operations)
 and found also     2 'primitive' translations

The magnetic configuration has the point symmetry C_1 .
 The point group associated with its full space group is C_2v.

 irot  :   1
 isymop:   1   0   0
           0   1   0
           0   0   1

 gtrans:     0.0000000     0.0000000     0.0000000

 ptrans:     0.0000000     0.0000000     0.0000000
 rotmap:
 (   1->   1)  (   2->   2)  (   3->   3)  (   4->   4)  (   5->   5)
 (   6->   6)  (   7->   7)  (   8->   8)  (   9->   9)  (  10->  10)
 (  11->  11)  (  12->  12)  (  13->  13)  (  14->  14)  (  15->  15)
 (  16->  16)  (  17->  17)  (  18->  18)  (  19->  19)  (  20->  20)
 (  21->  21)  (  22->  22)  (  23->  23)  (  24->  24)  (  25->  25)
 (  26->  26)  (  27->  27)  (  28->  28)  (  29->  29)  (  30->  30)
 (  31->  31)  (  32->  32)  (  33->  33)  (  34->  34)  (  35->  35)
 (  36->  36)  (  37->  37)  (  38->  38)  (  39->  39)  (  40->  40)

[...]

 irot  :   4
 isymop:   1   0   0
           0  -1   0
           0   0  -1

 gtrans:     0.5000000     0.2500000     0.0000000

[...]

 ptrans:     0.0000000     0.5000000     0.0000000
 rotmap:
 (   1->   7)  (   2->   8)  (   3->   5)  (   4->   6)  (   5->   3)
 (   6->   4)  (   7->   1)  (   8->   2)  (   9->  14)  (  10->  13)
 (  11->  16)  (  12->  15)  (  13->  10)  (  14->   9)  (  15->  12)
 (  16->  11)  (  17->  23)  (  18->  24)  (  19->  21)  (  20->  22)
 (  21->  19)  (  22->  20)  (  23->  17)  (  24->  18)  (  25->  35)
 (  26->  36)  (  27->  33)  (  28->  34)  (  29->  39)  (  30->  40)
 (  31->  37)  (  32->  38)  (  33->  27)  (  34->  28)  (  35->  25)
 (  36->  26)  (  37->  31)  (  38->  32)  (  39->  29)  (  40->  30)

 KPOINTS: Automatic mesh

Automatic generation of k-mesh.
Space group operators:
 irot       det(A)        alpha          n_x          n_y          n_z        tau_x        tau_y        tau_z
    1     1.000000     0.000000     1.000000     0.000000     0.000000     0.000000     0.000000     0.000000
    2    -1.000000   179.999999     0.000000     1.000000     0.000000     0.500000     0.250000     0.500000
    3    -1.000000   180.000000     0.000000     0.000000     1.000000     0.000000     0.000000     0.500000
    4     1.000000   180.000000     1.000000     0.000000     0.000000     0.500000     0.250000     0.000000

 Subroutine IBZKPT returns following result:

 Found     12 irreducible k-points:

 Following reciprocal coordinates:
            Coordinates               Weight
  0.083333  0.000000  0.125000      4.000000
  0.250000  0.000000  0.125000      4.000000
  0.416667  0.000000  0.125000      4.000000
  0.083333  0.333333  0.125000      8.000000
  0.250000  0.333333  0.125000      8.000000
  0.416667  0.333333  0.125000      8.000000
  0.083333  0.000000  0.375000      4.000000
  0.250000  0.000000  0.375000      4.000000
  0.416667  0.000000  0.375000      4.000000
  0.083333  0.333333  0.375000      8.000000
  0.250000  0.333333  0.375000      8.000000
  0.416667  0.333333  0.375000      8.000000

 Following cartesian coordinates:
            Coordinates               Weight
  0.016055  0.000000  0.017069      4.000000
  0.048165  0.000000  0.017069      4.000000
  0.080274  0.000000  0.017069      4.000000
[...]
     30     -15.6580      1.00000
     31     -15.5778      1.00000
     32     -15.5071      1.00000
     33     -15.3178      1.00000
     34     -15.2686      1.00000
     35     -15.2270      1.00000
     36     -15.1661      1.00000
     37     -15.0014      1.00000
     38     -14.9101      1.00000
     39     -14.8332      1.00000
     40     -14.7929      1.00000
     41     -14.7849      1.00000
     42     -14.6847      1.00000
     43     -14.6748      1.00000
     44     -14.6096      1.00000
     45     -14.6012      1.00000
     46     -14.5676      1.00000
     47     -14.5265      1.00000
     48     -14.4926      1.00000
     49     -12.6053      1.00000
     50     -12.5156      1.00000
     51     -12.4736      1.00000
     52     -12.3862      1.00000
     53     -12.3520      1.00000
     54     -12.3346      1.00000
     55     -12.2550      1.00000
     56     -12.2188      1.00000
     57     -12.1579      1.00000
     58     -12.1113      1.00000
     59     -12.0981      1.00000
     60     -12.0371      1.00000
[...]
    178       8.8302      0.00000
    179       8.9501      0.00000
    180       9.0036      0.00000
    181       9.5062      0.00000
    182       9.5756      0.00000
    183       9.5983      0.00000
    184       9.6434      0.00000
    185       9.9210      0.00000
    186       9.9479      0.00000
    187      10.1582      0.00000
    188      10.1846      0.00000
    189      10.4477      0.00000
    190      10.4846      0.00000
    191      10.6397      0.00000
    192      10.7125      0.00000

 soft charge-density along one line, spin component           1
         0         1         2         3         4         5         6         7         8         9
 total charge-density along one line

 soft charge-density along one line, spin component           2
         0         1         2         3         4         5         6         7         8         9
 total charge-density along one line

------------------------ aborting loop because EDIFF is reached ----------------------------------------

            Ionic dipole moment: p[ion]=(    -0.10893   148.91949   131.82140 ) electrons Angst

    Spin resolved dipole moment: p[sp1]=(    -0.56605     0.00002    -0.00000 ) electrons Angst
                                 p[sp2]=(    -0.56605     0.00004    -0.00010 ) electrons Angst

 Total electronic dipole moment: p[elc]=(    -1.13211     0.00006    -0.00010 ) electrons Angst

 total charge

# of ion     s       p       d       tot
  1        0.461   7.510   1.789   9.760
  2        0.471   7.556   1.829   9.855
  3        0.461   7.510   1.789   9.760
  4        0.471   7.556   1.829   9.856
  5        0.461   7.510   1.789   9.760
  6        0.471   7.556   1.829   9.855
  7        0.461   7.510   1.789   9.760
  8        0.471   7.556   1.829   9.856
  9        0.320   6.394   4.984  11.697
 10        0.319   6.394   4.986  11.699
 11        0.319   6.394   4.986  11.699
 12        0.320   6.394   4.983  11.697
 13        0.320   6.394   4.984  11.697
 14        0.319   6.394   4.986  11.699
 15        0.319   6.394   4.986  11.699
 16        0.320   6.394   4.983  11.697
 17        1.559   3.511   0.000   5.070
 18        1.559   3.513   0.000   5.072
 19        1.559   3.511   0.000   5.070
 20        1.559   3.513   0.000   5.072
 21        1.559   3.511   0.000   5.070
 22        1.559   3.513   0.000   5.072
 23        1.559   3.511   0.000   5.070
 24        1.559   3.513   0.000   5.072
 25        1.558   3.479   0.000   5.038
 26        1.560   3.471   0.000   5.031
 27        1.558   3.481   0.000   5.040
 28        1.561   3.473   0.000   5.033
 29        1.560   3.473   0.000   5.033
 30        1.558   3.481   0.000   5.039
 31        1.560   3.471   0.000   5.031
 32        1.558   3.480   0.000   5.038
 33        1.558   3.479   0.000   5.038
 34        1.560   3.471   0.000   5.031
 35        1.558   3.481   0.000   5.040
 36        1.561   3.473   0.000   5.033
 37        1.560   3.473   0.000   5.033
 38        1.558   3.481   0.000   5.039
 39        1.560   3.471   0.000   5.031
 40        1.558   3.480   0.000   5.038
tot       43.699 195.130  54.349 293.178

 magnetization (x)

[...]

  FORCE on cell =-STRESS in cart. coord.  units (eV):
  Direction    XX          YY          ZZ          XY          YZ          ZX
  Alpha Z  2143.72893  2143.72893  2143.72893
  Ewald   -8052.89682 -8622.58961 -7376.85892     0.00003    -0.00002     0.00000
  Hartree  2569.54945  2351.02571  3044.55553    -0.00002    -0.00000    -0.00000
  E(xc)   -1621.06796 -1621.74919 -1620.51029    -0.00000    -0.00000     0.00000
  Local      30.93779   772.52943 -1113.33452     0.00001     0.00001     0.00000
  n-local  -891.34891  -900.53107  -897.31764     0.00086     0.00189     0.21677
  augment  1143.95726  1166.12202  1142.43843    -0.00001     0.00000    -0.00000
  Kinetic  4698.52811  4732.87864  4698.72254    -0.07604     0.01009    -0.47153
  Fock        0.00000     0.00000     0.00000     0.00000     0.00000     0.00000
  Total      21.38784    21.41485    21.42405     0.00000     0.00000     0.00000
  in kB      78.69433    78.79371    78.82753     0.00000     0.00000     0.00000

 VOLUME and BASIS-vectors are now :
  energy-cutoff  :      500.00
  volume of cell :      435.45
      direct lattice vectors                 reciprocal lattice vectors
     5.190540164  0.000000000  0.000000000     0.192658176  0.000000000  0.000000000
     0.000000000 11.455345427  0.000000000     0.000000000  0.087295491  0.000000000
     0.000000000  0.000000000  7.323411137     0.000000000  0.000000000  0.136548390

  length of vectors
     5.190540164 11.455345427  7.323411137     0.192658176  0.087295491  0.136548390

 FORCES acting on ions
    electron-ion (+dipol)            ewald-force                    non-local-force                 convergence-correction
   -.189E+02 0.699E+02 0.346E-06   0.192E+02 -.699E+02 -.317E-05   -.365E+00 -.462E-01 0.434E-18   -.454E-05 -.165E-04 0.480E-13
   0.203E+02 -.578E+02 0.100E-05   -.206E+02 0.578E+02 -.995E-05   0.240E+00 -.368E-01 0.000E+00   0.143E-06 -.151E-04 0.187E-12
   -.189E+02 -.699E+02 0.111E-05   0.192E+02 0.699E+02 -.101E-04   -.365E+00 0.462E-01 0.000E+00   -.454E-05 0.165E-04 0.904E-13
   0.203E+02 0.578E+02 0.313E-06   -.206E+02 -.578E+02 -.348E-05   0.240E+00 0.368E-01 0.867E-18   0.143E-06 0.151E-04 0.614E-13
   -.189E+02 0.699E+02 0.346E-06   0.192E+02 -.699E+02 -.317E-05   -.365E+00 -.462E-01 0.434E-18   -.454E-05 -.165E-04 0.138E-12
   0.203E+02 -.578E+02 0.100E-05   -.206E+02 0.578E+02 -.995E-05   0.240E+00 -.368E-01 0.867E-18   0.143E-06 -.151E-04 0.144E-12
   -.189E+02 -.699E+02 0.111E-05   0.192E+02 0.699E+02 -.101E-04   -.365E+00 0.462E-01 0.000E+00   -.454E-05 0.165E-04 0.112E-13
   0.203E+02 0.578E+02 0.313E-06   -.206E+02 -.578E+02 -.348E-05   0.240E+00 0.368E-01 0.867E-18   0.143E-06 0.151E-04 0.964E-13
   -.903E+00 0.734E+01 0.215E+01   0.766E+00 -.738E+01 -.229E+01   0.137E+00 0.479E-01 0.135E+00   0.165E-04 -.333E-04 -.162E-05
   -.903E+00 -.734E+01 -.215E+01   0.766E+00 0.738E+01 0.229E+01   0.137E+00 -.479E-01 -.135E+00   0.165E-04 0.333E-04 0.162E-05
   -.903E+00 0.734E+01 -.215E+01   0.766E+00 -.738E+01 0.229E+01   0.137E+00 0.479E-01 -.135E+00   0.165E-04 -.333E-04 0.162E-05
   -.903E+00 -.734E+01 0.215E+01   0.766E+00 0.738E+01 -.229E+01   0.137E+00 -.479E-01 0.135E+00   0.165E-04 0.333E-04 -.162E-05
   -.903E+00 0.734E+01 0.215E+01   0.766E+00 -.738E+01 -.229E+01   0.137E+00 0.479E-01 0.135E+00   0.165E-04 -.333E-04 -.162E-05
   -.903E+00 -.734E+01 -.215E+01   0.766E+00 0.738E+01 0.229E+01   0.137E+00 -.479E-01 -.135E+00   0.165E-04 0.333E-04 0.162E-05
   -.903E+00 0.734E+01 -.215E+01   0.766E+00 -.738E+01 0.229E+01   0.137E+00 0.479E-01 -.135E+00   0.165E-04 -.333E-04 0.162E-05
   -.903E+00 -.734E+01 0.215E+01   0.766E+00 0.738E+01 -.229E+01   0.137E+00 -.479E-01 0.135E+00   0.165E-04 0.333E-04 -.162E-05
   -.881E+02 -.842E+01 -.778E-06   0.912E+02 0.102E+02 0.152E-06   -.313E+01 -.177E+01 0.434E-18   0.744E-05 0.868E-05 -.204E-13
   0.889E+02 0.407E-01 0.731E-06   -.919E+02 -.184E+01 -.723E-05   0.302E+01 0.180E+01 0.000E+00   -.188E-05 0.131E-04 0.507E-13
   -.881E+02 0.843E+01 0.230E-05   0.912E+02 -.102E+02 -.727E-05   -.313E+01 0.177E+01 0.434E-18   0.744E-05 -.868E-05 0.597E-13
   0.889E+02 -.400E-01 0.158E-05   -.919E+02 0.184E+01 0.825E-07   0.302E+01 -.180E+01 -.651E-18   -.188E-05 -.131E-04 0.217E-12
   -.881E+02 -.843E+01 -.778E-06   0.912E+02 0.102E+02 0.152E-06   -.313E+01 -.177E+01 0.434E-18   0.744E-05 0.868E-05 0.969E-13
   0.889E+02 0.407E-01 0.731E-06   -.919E+02 -.184E+01 -.723E-05   0.302E+01 0.180E+01 0.000E+00   -.188E-05 0.131E-04 0.150E-12
   -.881E+02 0.843E+01 0.230E-05   0.912E+02 -.102E+02 -.727E-05   -.313E+01 0.177E+01 0.434E-18   0.744E-05 -.868E-05 -.447E-13
   0.889E+02 -.399E-01 0.158E-05   -.919E+02 0.184E+01 0.825E-07   0.302E+01 -.180E+01 -.651E-18   -.188E-05 -.131E-04 0.101E-12
   0.891E+02 0.372E+01 -.350E+02   -.952E+02 -.729E+01 0.355E+02   0.605E+01 0.357E+01 -.451E+00   -.580E-05 0.308E-05 0.484E-05
   -.898E+02 -.150E+02 0.317E+02   0.954E+02 0.200E+02 -.309E+02   -.557E+01 -.508E+01 -.819E+00   0.785E-05 0.497E-05 -.489E-05
   0.891E+02 -.372E+01 0.350E+02   -.952E+02 0.729E+01 -.355E+02   0.605E+01 -.357E+01 0.451E+00   -.580E-05 -.308E-05 -.484E-05
   -.898E+02 0.150E+02 -.317E+02   0.954E+02 -.200E+02 0.309E+02   -.557E+01 0.508E+01 0.819E+00   0.785E-05 -.497E-05 0.489E-05
   -.898E+02 -.150E+02 -.317E+02   0.954E+02 0.200E+02 0.309E+02   -.557E+01 -.508E+01 0.819E+00   0.785E-05 0.497E-05 0.489E-05
   0.891E+02 0.372E+01 0.350E+02   -.952E+02 -.729E+01 -.355E+02   0.605E+01 0.357E+01 0.451E+00   -.580E-05 0.308E-05 -.484E-05
   -.898E+02 0.150E+02 0.317E+02   0.954E+02 -.200E+02 -.309E+02   -.557E+01 0.508E+01 -.819E+00   0.785E-05 -.497E-05 -.489E-05
   0.891E+02 -.372E+01 -.350E+02   -.952E+02 0.729E+01 0.355E+02   0.605E+01 -.357E+01 -.451E+00   -.580E-05 -.308E-05 0.484E-05
   0.891E+02 0.372E+01 -.350E+02   -.952E+02 -.729E+01 0.355E+02   0.605E+01 0.357E+01 -.451E+00   -.580E-05 0.308E-05 0.484E-05
   -.898E+02 -.150E+02 0.317E+02   0.954E+02 0.200E+02 -.309E+02   -.557E+01 -.508E+01 -.819E+00   0.785E-05 0.497E-05 -.489E-05
   0.891E+02 -.372E+01 0.350E+02   -.952E+02 0.729E+01 -.355E+02   0.605E+01 -.357E+01 0.451E+00   -.580E-05 -.308E-05 -.484E-05
   -.898E+02 0.150E+02 -.317E+02   0.954E+02 -.200E+02 0.309E+02   -.557E+01 0.508E+01 0.819E+00   0.785E-05 -.497E-05 0.489E-05
   -.898E+02 -.150E+02 -.317E+02   0.954E+02 0.200E+02 0.309E+02   -.557E+01 -.508E+01 0.819E+00   0.785E-05 0.497E-05 0.489E-05
   0.891E+02 0.372E+01 0.350E+02   -.952E+02 -.729E+01 -.355E+02   0.605E+01 0.357E+01 0.451E+00   -.580E-05 0.308E-05 -.484E-05
   -.898E+02 0.150E+02 0.317E+02   0.954E+02 -.200E+02 -.309E+02   -.557E+01 0.508E+01 -.819E+00   0.785E-05 -.497E-05 -.489E-05
   0.891E+02 -.372E+01 -.350E+02   -.952E+02 0.729E+01 0.355E+02   0.605E+01 -.357E+01 -.451E+00   -.580E-05 -.308E-05 0.484E-05
   -.390E+01 0.928E-02 0.604E-03   0.128E-12 0.167E-12 -.107E-12   0.390E+01 0.222E-14 -.389E-15   0.153E-03 0.179E-09 0.177E-10

 POSITION                                       TOTAL-FORCE (eV/Angst)
      5.08906      0.44858      1.83085         0.000014     -0.000124     -0.000000
      0.10795     10.97836      5.49256         0.000029     -0.000089      0.000000
      2.49379      2.41525      5.49256         0.000014      0.000124     -0.000000
      2.70322      3.34082      1.83085         0.000029      0.000089      0.000000
      5.08906      6.17625      1.83085         0.000014     -0.000124     -0.000000
      0.10795      5.25069      5.49256         0.000029     -0.000089      0.000000
      2.49379      8.14293      5.49256         0.000014      0.000124     -0.000000
      2.70322      9.06849      1.83085         0.000029      0.000089     -0.000000
      2.60308      0.02389      0.00109        -0.000108     -0.000203     -0.000049
      0.00781      2.83995      7.32233        -0.000108      0.000203      0.000049
      2.60308      0.02389      3.66062        -0.000108     -0.000203      0.000049
      0.00781      2.83995      3.66279        -0.000108      0.000203     -0.000049
      2.60308      5.75156      0.00109        -0.000108     -0.000203     -0.000049
      0.00781      8.56762      7.32233        -0.000108      0.000203      0.000049
      2.60308      5.75156      3.66062        -0.000108     -0.000203      0.000049
      0.00781      8.56762      3.66279        -0.000108      0.000203     -0.000049
      0.52399      2.70527      1.83085         0.000254     -0.000082     -0.000000
      4.68672      8.72067      5.49256        -0.000015     -0.000234     -0.000000
      3.11926      0.15857      5.49256         0.000254      0.000082      0.000000
      2.09145      5.59851      1.83085        -0.000015      0.000234     -0.000000
      0.52399      8.43294      1.83085         0.000254     -0.000082     -0.000000
      4.68672      2.99300      5.49256        -0.000015     -0.000234     -0.000000
      3.11926      5.88624      5.49256         0.000254      0.000082      0.000000
      2.09145     11.32618      1.83085        -0.000015      0.000234     -0.000000
      3.63349      1.83363      0.36808         0.000024      0.000022      0.000017
      1.53591      9.64262      6.97577        -0.000058     -0.000094     -0.000110
      1.03822      1.03020      6.95533         0.000024     -0.000022     -0.000017
      4.13118      4.67656      0.34764        -0.000058      0.000094      0.000110
      1.53591      9.64262      4.00934        -0.000058     -0.000094      0.000110
      3.63349      1.83363      3.29363         0.000024      0.000022     -0.000017
      4.13118      4.67656      3.31407        -0.000058      0.000094     -0.000110
      1.03822      1.03020      4.02978         0.000024     -0.000022      0.000017
      3.63349      7.56131      0.36808         0.000024      0.000022      0.000017
      1.53591      3.91495      6.97577        -0.000058     -0.000094     -0.000110
      1.03822      6.75787      6.95533         0.000024     -0.000022     -0.000017
      4.13118     10.40423      0.34764        -0.000058      0.000094      0.000110
      1.53591      3.91495      4.00934        -0.000058     -0.000094      0.000110
      3.63349      7.56131      3.29363         0.000024      0.000022     -0.000017
      4.13118     10.40423      3.31407        -0.000058      0.000094     -0.000110
      1.03822      6.75787      4.02978         0.000024     -0.000022      0.000017
    total drift:                                0.004483      0.009284      0.000604

  FREE ENERGIE OF THE ION-ELECTRON SYSTEM (eV)
  free  energy   TOTEN  =      -345.50790931 eV

  energy  without entropy=     -345.50790931  energy(sigma->0) =     -345.50790931
  enthalpy is  TOTEN    =      -318.32952851 eV   P V=       27.17838080

 writing wavefunctions

 total charge

[...]

 magnetization (x)

# of ion     s       p       d       tot
  1        0.000  -0.000  -0.000  -0.000
  2        0.000  -0.000   0.001   0.000
  3        0.000  -0.000  -0.000  -0.000
  4        0.000  -0.000   0.001   0.000
  5       -0.000   0.000   0.000   0.000
  6       -0.000   0.000  -0.001  -0.000
  7       -0.000   0.000   0.000   0.000
  8       -0.000   0.000  -0.001  -0.000
  9        0.022   0.026   3.417   3.465
 10       -0.022  -0.026  -3.420  -3.468
 11       -0.022  -0.026  -3.417  -3.465
 12        0.022   0.026   3.420   3.468
 13       -0.022  -0.026  -3.417  -3.465
 14        0.022   0.026   3.420   3.468
 15        0.022   0.026   3.417   3.465
 16       -0.022  -0.026  -3.420  -3.468
 17        0.000   0.000   0.000   0.000
 18        0.000  -0.000   0.000  -0.000
 19        0.000   0.000   0.000   0.000
 20        0.000  -0.000   0.000   0.000
 21       -0.000  -0.000   0.000  -0.000
 22       -0.000   0.000   0.000   0.000
 23       -0.000  -0.000   0.000  -0.000
 24       -0.000   0.000   0.000  -0.000
 25        0.006   0.009   0.000   0.015
 26        0.008   0.031   0.000   0.039
 27       -0.006  -0.009   0.000  -0.016
 28       -0.009  -0.031   0.000  -0.040
 29       -0.009  -0.031   0.000  -0.040
 30       -0.006  -0.009   0.000  -0.015
 31        0.009   0.031   0.000   0.039
 32        0.006   0.009   0.000   0.015
 33       -0.006  -0.009   0.000  -0.015
 34       -0.008  -0.031   0.000  -0.039
 35        0.006   0.009   0.000   0.016
 36        0.009   0.031   0.000   0.040
 37        0.009   0.031   0.000   0.040
 38        0.006   0.009   0.000   0.015
 39       -0.009  -0.031   0.000  -0.039
 40       -0.006  -0.009   0.000  -0.015
tot        0.000  -0.000   0.000  -0.000